************************************************************************
file with basedata            : j60_36.bas
initial value random generator: 909476949
************************************************************************
projects                      :  1
jobs (incl. supersource/sink ):  62
horizon                       :  348
RESOURCES
  - renewable                 :  4   R
  - nonrenewable              :  0   N
  - doubly constrained        :  0   D
************************************************************************
PROJECT INFORMATION:
pronr.  #jobs rel.date duedate tardcost  MPM-Time
    1     60      0       69        4       69
************************************************************************
PRECEDENCE RELATIONS:
jobnr.    #modes  #successors   successors
   1        1          3           2   3   4
   2        1          3           8  10  14
   3        1          3           5   7  18
   4        1          2          13  15
   5        1          3           6  12  32
   6        1          2          15  17
   7        1          3          13  38  50
   8        1          3           9  15  21
   9        1          1          46
  10        1          1          11
  11        1          3          23  35  59
  12        1          3          20  42  52
  13        1          2          24  48
  14        1          1          31
  15        1          3          16  22  27
  16        1          1          23
  17        1          2          19  26
  18        1          3          21  34  55
  19        1          3          43  53  57
  20        1          2          28  41
  21        1          3          28  33  36
  22        1          2          25  36
  23        1          2          45  58
  24        1          3          30  33  56
  25        1          2          44  47
  26        1          1          40
  27        1          1          29
  28        1          1          37
  29        1          1          35
  30        1          3          31  36  52
  31        1          1          44
  32        1          3          35  39  43
  33        1          1          37
  34        1          3          38  41  51
  35        1          3          37  52  54
  36        1          2          39  41
  37        1          1          57
  38        1          2          45  48
  39        1          2          47  51
  40        1          2          49  51
  41        1          2          44  61
  42        1          1          57
  43        1          1          46
  44        1          1          59
  45        1          2          47  60
  46        1          2          49  54
  47        1          1          53
  48        1          2          53  56
  49        1          2          56  58
  50        1          1          54
  51        1          1          60
  52        1          1          55
  53        1          1          61
  54        1          1          55
  55        1          1          60
  56        1          1          59
  57        1          1          58
  58        1          1          61
  59        1          1          62
  60        1          1          62
  61        1          1          62
  62        1          0        
************************************************************************
REQUESTS/DURATIONS:
jobnr. mode duration  R 1  R 2  R 3  R 4
------------------------------------------------------------------------
  1      1     0       0    0    0    0
  2      1     5       0    0    9    0
  3      1     3       0    0   10    0
  4      1     4       0    0    0    4
  5      1     7       0    0    7    0
  6      1     8       0    0    3    0
  7      1    10       0    1    0    0
  8      1     3       0    0    2    0
  9      1     1       0    4    0    0
 10      1     5       0    0    5    0
 11      1    10       0    9    0    0
 12      1     8       0    0    9    0
 13      1     6       0    1    0    0
 14      1     7       0    1    0    0
 15      1     2       3    0    0    0
 16      1     6       0    0    0   10
 17      1    10       0    0    8    0
 18      1     7       0    0    0    2
 19      1     6       0    4    0    0
 20      1     4       0    0    5    0
 21      1     1       0    0    6    0
 22      1     1       0    0    0   10
 23      1     8       0    6    0    0
 24      1     1       0    2    0    0
 25      1     4       0    0    0    9
 26      1     7       5    0    0    0
 27      1     8       0    0    1    0
 28      1     9       0    8    0    0
 29      1     1       0    3    0    0
 30      1    10       0    4    0    0
 31      1     4       1    0    0    0
 32      1     5       0    0    0    6
 33      1    10       9    0    0    0
 34      1     8       0    0    9    0
 35      1     1       0    0    0    5
 36      1     9       5    0    0    0
 37      1     8       0    0    0    6
 38      1     3       0    0    4    0
 39      1     4       0    0    7    0
 40      1     9       0    5    0    0
 41      1    10       0    0    3    0
 42      1     2       0    0    0    9
 43      1     9       0    0    4    0
 44      1     4       0    6    0    0
 45      1     8       6    0    0    0
 46      1     2       0    0    0    2
 47      1    10       0    4    0    0
 48      1     7       0    0    0    7
 49      1     7       0    0    8    0
 50      1     1       0    0    8    0
 51      1     3       0    0    0    8
 52      1     7       0    7    0    0
 53      1     9       3    0    0    0
 54      1     2       0    0    4    0
 55      1    10       0    0    0    8
 56      1     8       1    0    0    0
 57      1     7       0    0    2    0
 58      1     2       0    0    0    1
 59      1     9       0    3    0    0
 60      1     1       0   10    0    0
 61      1     7       2    0    0    0
 62      1     0       0    0    0    0
************************************************************************
RESOURCEAVAILABILITIES:
  R 1  R 2  R 3  R 4
   16   25   29   26
************************************************************************
Job	#risk	Type	VL	mu	sigma	Type	VL	mu	sigma
2	1	2	0.05	2.5	0.125
3	1	1	0.1	1.25	0.125
8	2	2	0.1	2.5	0.25	3	0.1	3.75	0.375
12	2	3	0.1	3.75	0.375	7	0.05	8.75	0.4375
13	2	3	0.2	3.75	0.75	7	0.05	8.75	0.4375
15	2	4	0.2	5	1	7	0.1	8.75	0.875
20	2	6	0.05	7.5	0.375	8	0.1	10	1
23	2	2	0.2	2.5	0.5	4	0.05	5	0.25
27	2	4	0.1	5	0.5	7	0.1	8.75	0.875
29	1	3	0.1	3.75	0.375
43	1	7	0.2	8.75	1.75
45	2	1	0.1	1.25	0.125	6	0.05	7.5	0.375
47	2	5	0.1	6.25	0.625	7	0.2	8.75	1.75
50	2	7	0.2	8.75	1.75	8	0.1	10	1
51	1	8	0.2	10	2
53	2	1	0.2	1.25	0.25	2	0.05	2.5	0.125
56	1	5	0.1	6.25	0.625
57	2	1	0.05	1.25	0.0625	3	0.2	3.75	0.75
